332 6 324 16 343 233 338 247 326 130 313 121 82 155 67 148 106 62 121 50 99 42 106 62 349 65 347 42 298 103 313 121 471 223 468 247 492 200 514 182 67 148 48 126 48 126 29 104 295 5 324 16 471 223 492 200 338 247 318 274 581 12 563 41 63 289 30 299 347 42 324 16 552 180 514 182 546 246 582 222 546 246 510 275 468 247 510 275 154 268 117 229 246 30 295 5 24 42 29 104 298 103 349 65 552 180 583 114 99 42 24 42 583 114 563 41 269 185 313 121 154 268 228 300 63 289 117 229 82 155 117 229 409 307 468 247 413 143 326 130 343 233 269 185 440 49 349 65 409 307 338 247 228 300 318 274 